benchmarks/VRPTW/TSPTW/solution/n40w40.001.txt.solution
1 11 33 3 21 20 34 28 24 35 22 14 15 32 29 30 10 31 7 2 17 18 16 27 36 25 5 12 6 23 39 37 9 4 26 19 38 8 41 40 13 
465
